50
16034

389 732
568 174
757 923
611 822
419 497
790 178
545 147
240 40
612 786
472 644
740 968
592 224
709 753
672 845
825 249
919 111
241 790
745 661
450 856
329 819
403 77
542 852
300 626
292 338
385 713
539 541
964 481
420 477
328 345
273 262
13 905
682 136
365 308
678 101
544 414
680 738
596 816
357 428
880 470
524 177
327 163
595 453
50 638
3 442
438 183
330 313
241 572
768 919
946 495
109 264
